rcpsp/heur_output_or_constraints/Log=10/heurj90.txt
encoding rcpsp/j90.sm/j9017_3.sm nv: 362160 nc: 888996 enctime: 14.48
encoding rcpsp/j90.sm/j9017_3.sm nv: 68400 nc: 164796 enctime: 1.30
c File: j9017_3.smnaiveor10.wcnf
c optimal
c final solution cost: 87
c CPU time: 5.181493
s OPTIMUM FOUND

c File: j9017_3.smor10.wcnf
c optimal
c final solution cost: 87
c CPU time: 0.335824
s OPTIMUM FOUND


rcpsp/heur_output_or_constraints/Log=10/heurj90.txt
encoding rcpsp/j90.sm/j9017_4.sm nv: 352824 nc: 858314 enctime: 13.36
encoding rcpsp/j90.sm/j9017_4.sm nv: 71736 nc: 171722 enctime: 1.28
c File: j9017_4.smnaiveor10.wcnf
c optimal
c final solution cost: 94
c CPU time: 4.039060
s OPTIMUM FOUND

c File: j9017_4.smor10.wcnf
c optimal
c final solution cost: 94
c CPU time: 0.267147
s OPTIMUM FOUND


rcpsp/heur_output_or_constraints/Log=10/heurj90.txt
encoding rcpsp/j90.sm/j9017_5.sm nv: 315324 nc: 768803 enctime: 11.91
encoding rcpsp/j90.sm/j9017_5.sm nv: 71820 nc: 172503 enctime: 1.30
c File: j9017_5.smnaiveor10.wcnf
c optimal
c final solution cost: 90
c CPU time: 2.811468
s OPTIMUM FOUND

c File: j9017_5.smor10.wcnf
c optimal
c final solution cost: 90
c CPU time: 0.302352
s OPTIMUM FOUND


rcpsp/heur_output_or_constraints/Log=10/heurj90.txt
encoding rcpsp/j90.sm/j9017_6.sm nv: 364270 nc: 896428 enctime: 14.29
encoding rcpsp/j90.sm/j9017_6.sm nv: 72270 nc: 174828 enctime: 1.32
c File: j9017_6.smnaiveor10.wcnf
c optimal
c final solution cost: 88
c CPU time: 4.598834
s OPTIMUM FOUND

c File: j9017_6.smor10.wcnf
c optimal
c final solution cost: 88
c CPU time: 0.539327
s OPTIMUM FOUND


rcpsp/heur_output_or_constraints/Log=10/heurj90.txt
encoding rcpsp/j90.sm/j9017_7.sm nv: 367284 nc: 887236 enctime: 13.56
encoding rcpsp/j90.sm/j9017_7.sm nv: 66294 nc: 157276 enctime: 1.20
c File: j9017_7.smnaiveor10.wcnf
c optimal
c final solution cost: 74
c CPU time: 3.727667
s OPTIMUM FOUND

c File: j9017_7.smor10.wcnf
c optimal
c final solution cost: 74
c CPU time: 0.374673
s OPTIMUM FOUND


rcpsp/heur_output_or_constraints/Log=10/heurj90.txt
encoding rcpsp/j90.sm/j9017_8.sm nv: 338016 nc: 847719 enctime: 13.94
encoding rcpsp/j90.sm/j9017_8.sm nv: 82656 nc: 204379 enctime: 1.59
c File: j9017_8.smnaiveor10.wcnf
c optimal
c final solution cost: 105
c CPU time: 5.060441
s OPTIMUM FOUND

c File: j9017_8.smor10.wcnf
c optimal
c final solution cost: 105
c CPU time: 0.556474
s OPTIMUM FOUND


rcpsp/heur_output_or_constraints/Log=10/heurj90.txt
encoding rcpsp/j90.sm/j9017_9.sm nv: 293304 nc: 743635 enctime: 12.47
encoding rcpsp/j90.sm/j9017_9.sm nv: 62418 nc: 155371 enctime: 1.24
c File: j9017_9.smnaiveor10.wcnf
c optimal
c final solution cost: 93
c CPU time: 5.934906
s OPTIMUM FOUND

c File: j9017_9.smor10.wcnf
c optimal
c final solution cost: 93
c CPU time: 0.856161
s OPTIMUM FOUND


rcpsp/heur_output_or_constraints/Log=10/heurj90.txt
encoding rcpsp/j90.sm/j901_7.sm nv: 345744 nc: 847051 enctime: 13.03
encoding rcpsp/j90.sm/j901_7.sm nv: 70658 nc: 170163 enctime: 0.88
c File: j901_7.smnaiveor10.wcnf
c optimal
c final solution cost: 87
c CPU time: 20.467841
s OPTIMUM FOUND

c File: j901_7.smor10.wcnf
c optimal
c final solution cost: 87
c CPU time: 0.947747
s OPTIMUM FOUND


rcpsp/heur_output_or_constraints/Log=10/heurj90.txt
encoding rcpsp/j90.sm/j9018_10.sm nv: 446985 nc: 1049783 enctime: 15.34
encoding rcpsp/j90.sm/j9018_10.sm nv: 80367 nc: 185815 enctime: 1.38
c File: j9018_10.smnaiveor10.wcnf
c optimal
c final solution cost: 81
c CPU time: 3.646534
s OPTIMUM FOUND

c File: j9018_10.smor10.wcnf
c optimal
c final solution cost: 81
c CPU time: 0.267474
s OPTIMUM FOUND


rcpsp/heur_output_or_constraints/Log=10/heurj90.txt
encoding rcpsp/j90.sm/j9018_1.sm nv: 501270 nc: 1194560 enctime: 17.66
encoding rcpsp/j90.sm/j9018_1.sm nv: 94860 nc: 222672 enctime: 1.64
c File: j9018_1.smnaiveor10.wcnf
c optimal
c final solution cost: 101
c CPU time: 4.068696
s OPTIMUM FOUND

c File: j9018_1.smor10.wcnf
c optimal
c final solution cost: 101
c CPU time: 0.260399
s OPTIMUM FOUND


rcpsp/heur_output_or_constraints/Log=10/heurj90.txt
encoding rcpsp/j90.sm/j9018_2.sm nv: 445005 nc: 1044730 enctime: 15.15
encoding rcpsp/j90.sm/j9018_2.sm nv: 85405 nc: 197530 enctime: 1.46
c File: j9018_2.smnaiveor10.wcnf
c optimal
c final solution cost: 94
c CPU time: 3.673846
s OPTIMUM FOUND

c File: j9018_2.smor10.wcnf
c optimal
c final solution cost: 94
c CPU time: 0.251062
s OPTIMUM FOUND


rcpsp/heur_output_or_constraints/Log=10/heurj90.txt
encoding rcpsp/j90.sm/j9018_3.sm nv: 455088 nc: 1070592 enctime: 15.40
encoding rcpsp/j90.sm/j9018_3.sm nv: 77520 nc: 179250 enctime: 1.36
c File: j9018_3.smnaiveor10.wcnf
c optimal
c final solution cost: 79
c CPU time: 3.264915
s OPTIMUM FOUND

c File: j9018_3.smor10.wcnf
c optimal
c final solution cost: 79
c CPU time: 0.204758
s OPTIMUM FOUND


rcpsp/heur_output_or_constraints/Log=10/heurj90.txt
encoding rcpsp/j90.sm/j9018_4.sm nv: 538965 nc: 1261244 enctime: 18.16
encoding rcpsp/j90.sm/j9018_4.sm nv: 95410 nc: 219873 enctime: 1.61
c File: j9018_4.smnaiveor10.wcnf
c optimal
c final solution cost: 91
c CPU time: 5.404616
s OPTIMUM FOUND

c File: j9018_4.smor10.wcnf
c optimal
c final solution cost: 91
c CPU time: 0.254593
s OPTIMUM FOUND


rcpsp/heur_output_or_constraints/Log=10/heurj90.txt
encoding rcpsp/j90.sm/j9018_5.sm nv: 429936 nc: 1023303 enctime: 15.56
encoding rcpsp/j90.sm/j9018_5.sm nv: 80560 nc: 188591 enctime: 0.94
c File: j9018_5.smnaiveor10.wcnf
c optimal
c final solution cost: 90
c CPU time: 3.371808
s OPTIMUM FOUND

c File: j9018_5.smor10.wcnf
c optimal
c final solution cost: 90
c CPU time: 0.274923
s OPTIMUM FOUND


rcpsp/heur_output_or_constraints/Log=10/heurj90.txt
encoding rcpsp/j90.sm/j9018_6.sm nv: 471225 nc: 1112522 enctime: 16.35
encoding rcpsp/j90.sm/j9018_6.sm nv: 75945 nc: 175946 enctime: 1.31
c File: j9018_6.smnaiveor10.wcnf
c optimal
c final solution cost: 79
c CPU time: 4.823616
s OPTIMUM FOUND

c File: j9018_6.smor10.wcnf
c optimal
c final solution cost: 79
c CPU time: 0.217084
s OPTIMUM FOUND


rcpsp/heur_output_or_constraints/Log=10/heurj90.txt
encoding rcpsp/j90.sm/j9018_7.sm nv: 370648 nc: 853580 enctime: 11.80
encoding rcpsp/j90.sm/j9018_7.sm nv: 64200 nc: 145456 enctime: 1.06
c File: j9018_7.smnaiveor10.wcnf
c optimal
c final solution cost: 71
c CPU time: 2.537049
s OPTIMUM FOUND

c File: j9018_7.smor10.wcnf
c optimal
c final solution cost: 71
c CPU time: 0.174483
s OPTIMUM FOUND


rcpsp/heur_output_or_constraints/Log=10/heurj90.txt
encoding rcpsp/j90.sm/j9018_8.sm nv: 542270 nc: 1252807 enctime: 17.59
encoding rcpsp/j90.sm/j9018_8.sm nv: 100225 nc: 228352 enctime: 1.68
c File: j9018_8.smnaiveor10.wcnf
c optimal
c final solution cost: 92
c CPU time: 3.797148
s OPTIMUM FOUND

c File: j9018_8.smor10.wcnf
c optimal
c final solution cost: 92
c CPU time: 0.249781
s OPTIMUM FOUND


rcpsp/heur_output_or_constraints/Log=10/heurj90.txt
encoding rcpsp/j90.sm/j9018_9.sm nv: 493525 nc: 1117954 enctime: 15.03
encoding rcpsp/j90.sm/j9018_9.sm nv: 89354 nc: 199525 enctime: 1.42
c File: j9018_9.smnaiveor10.wcnf
c optimal
c final solution cost: 79
c CPU time: 3.111621
s OPTIMUM FOUND

c File: j9018_9.smor10.wcnf
c optimal
c final solution cost: 79
c CPU time: 0.217963
s OPTIMUM FOUND


rcpsp/heur_output_or_constraints/Log=10/heurj90.txt
encoding rcpsp/j90.sm/j901_8.sm nv: 380712 nc: 955174 enctime: 15.25
encoding rcpsp/j90.sm/j901_8.sm nv: 72384 nc: 178152 enctime: 1.34
c File: j901_8.smnaiveor10.wcnf
c optimal
c final solution cost: 90
c CPU time: 11.431232
s OPTIMUM FOUND

c File: j901_8.smor10.wcnf
c optimal
c final solution cost: 90
c CPU time: 4.831991
s OPTIMUM FOUND


rcpsp/heur_output_or_constraints/Log=10/heurj90.txt
encoding rcpsp/j90.sm/j9019_10.sm nv: 589920 nc: 1308694 enctime: 16.33
encoding rcpsp/j90.sm/j9019_10.sm nv: 105694 nc: 231498 enctime: 1.56
c File: j9019_10.smnaiveor10.wcnf
c optimal
c final solution cost: 85
c CPU time: 3.347616
s OPTIMUM FOUND

c File: j9019_10.smor10.wcnf
c optimal
c final solution cost: 85
c CPU time: 0.226292
s OPTIMUM FOUND


rcpsp/heur_output_or_constraints/Log=10/heurj90.txt
encoding rcpsp/j90.sm/j9019_1.sm nv: 529659 nc: 1215513 enctime: 16.74
encoding rcpsp/j90.sm/j9019_1.sm nv: 101088 nc: 228945 enctime: 1.68
c File: j9019_1.smnaiveor10.wcnf
c optimal
c final solution cost: 94
c CPU time: 3.407862
s OPTIMUM FOUND

c File: j9019_1.smor10.wcnf
c optimal
c final solution cost: 94
c CPU time: 0.243542
s OPTIMUM FOUND


rcpsp/heur_output_or_constraints/Log=10/heurj90.txt
encoding rcpsp/j90.sm/j9019_2.sm nv: 509220 nc: 1136431 enctime: 13.98
encoding rcpsp/j90.sm/j9019_2.sm nv: 81918 nc: 179923 enctime: 1.26
c File: j9019_2.smnaiveor10.wcnf
c optimal
c final solution cost: 73
c CPU time: 3.070112
s OPTIMUM FOUND

c File: j9019_2.smor10.wcnf
c optimal
c final solution cost: 73
c CPU time: 0.171547
s OPTIMUM FOUND


rcpsp/heur_output_or_constraints/Log=10/heurj90.txt
encoding rcpsp/j90.sm/j9019_3.sm nv: 566724 nc: 1280644 enctime: 16.76
encoding rcpsp/j90.sm/j9019_3.sm nv: 99006 nc: 220675 enctime: 1.58
c File: j9019_3.smnaiveor10.wcnf
c optimal
c final solution cost: 81
c CPU time: 3.611515
s OPTIMUM FOUND

c File: j9019_3.smor10.wcnf
c optimal
c final solution cost: 81
c CPU time: 0.228237
s OPTIMUM FOUND


rcpsp/heur_output_or_constraints/Log=10/heurj90.txt
encoding rcpsp/j90.sm/j9019_4.sm nv: 616512 nc: 1399931 enctime: 18.43
encoding rcpsp/j90.sm/j9019_4.sm nv: 94848 nc: 212030 enctime: 1.56
c File: j9019_4.smnaiveor10.wcnf
c optimal
c final solution cost: 77
c CPU time: 3.715140
s OPTIMUM FOUND

c File: j9019_4.smor10.wcnf
c optimal
c final solution cost: 77
c CPU time: 0.220565
s OPTIMUM FOUND


rcpsp/heur_output_or_constraints/Log=10/heurj90.txt
encoding rcpsp/j90.sm/j9019_5.sm nv: 445718 nc: 968642 enctime: 11.60
encoding rcpsp/j90.sm/j9019_5.sm nv: 71890 nc: 154062 enctime: 1.06
c File: j9019_5.smnaiveor10.wcnf
c optimal
c final solution cost: 59
c CPU time: 2.443416
s OPTIMUM FOUND

c File: j9019_5.smor10.wcnf
c optimal
c final solution cost: 59
c CPU time: 0.170753
s OPTIMUM FOUND


rcpsp/heur_output_or_constraints/Log=10/heurj90.txt
encoding rcpsp/j90.sm/j9019_6.sm nv: 513080 nc: 1189876 enctime: 16.72
encoding rcpsp/j90.sm/j9019_6.sm nv: 115140 nc: 263976 enctime: 1.39
c File: j9019_6.smnaiveor10.wcnf
c optimal
c final solution cost: 113
c CPU time: 3.378043
s OPTIMUM FOUND

c File: j9019_6.smor10.wcnf
c optimal
c final solution cost: 113
c CPU time: 0.276218
s OPTIMUM FOUND


rcpsp/heur_output_or_constraints/Log=10/heurj90.txt
encoding rcpsp/j90.sm/j9019_7.sm nv: 483345 nc: 1094963 enctime: 14.07
encoding rcpsp/j90.sm/j9019_7.sm nv: 75555 nc: 168275 enctime: 1.20
c File: j9019_7.smnaiveor10.wcnf
c optimal
c final solution cost: 66
c CPU time: 3.299479
s OPTIMUM FOUND

c File: j9019_7.smor10.wcnf
c optimal
c final solution cost: 66
c CPU time: 0.201336
s OPTIMUM FOUND


rcpsp/heur_output_or_constraints/Log=10/heurj90.txt
encoding rcpsp/j90.sm/j9019_8.sm nv: 521220 nc: 1203816 enctime: 16.92
encoding rcpsp/j90.sm/j9019_8.sm nv: 76650 nc: 173736 enctime: 0.81
c File: j9019_8.smnaiveor10.wcnf
c optimal
c final solution cost: 74
c CPU time: 3.554810
s OPTIMUM FOUND

c File: j9019_8.smor10.wcnf
c optimal
c final solution cost: 74
c CPU time: 0.165494
s OPTIMUM FOUND


rcpsp/heur_output_or_constraints/Log=10/heurj90.txt
encoding rcpsp/j90.sm/j9019_9.sm nv: 580482 nc: 1354051 enctime: 19.51
encoding rcpsp/j90.sm/j9019_9.sm nv: 118881 nc: 273965 enctime: 1.38
c File: j9019_9.smnaiveor10.wcnf
c optimal
c final solution cost: 110
c CPU time: 4.137324
s OPTIMUM FOUND

c File: j9019_9.smor10.wcnf
c optimal
c final solution cost: 110
c CPU time: 0.283377
s OPTIMUM FOUND


rcpsp/heur_output_or_constraints/Log=10/heurj90.txt
encoding rcpsp/j90.sm/j901_9.sm nv: 360714 nc: 850749 enctime: 12.11
encoding rcpsp/j90.sm/j901_9.sm nv: 58597 nc: 135355 enctime: 0.64
c File: j901_9.smnaiveor10.wcnf
c optimal
c final solution cost: 69
c CPU time: 6.710833
s OPTIMUM FOUND

c File: j901_9.smor10.wcnf
c optimal
c final solution cost: 69
c CPU time: 0.498697
s OPTIMUM FOUND


rcpsp/heur_output_or_constraints/Log=10/heurj90.txt
encoding rcpsp/j90.sm/j9020_10.sm nv: 494400 nc: 1149752 enctime: 16.36
encoding rcpsp/j90.sm/j9020_10.sm nv: 76800 nc: 175352 enctime: 1.30
c File: j9020_10.smnaiveor10.wcnf
c optimal
c final solution cost: 79
c CPU time: 3.591687
s OPTIMUM FOUND

c File: j9020_10.smor10.wcnf
c optimal
c final solution cost: 79
c CPU time: 0.177845
s OPTIMUM FOUND


rcpsp/heur_output_or_constraints/Log=10/heurj90.txt
encoding rcpsp/j90.sm/j9020_1.sm nv: 664224 nc: 1509654 enctime: 20.37
encoding rcpsp/j90.sm/j9020_1.sm nv: 105006 nc: 235040 enctime: 1.71
c File: j9020_1.smnaiveor10.wcnf
c optimal
c final solution cost: 85
c CPU time: 4.146726
s OPTIMUM FOUND

c File: j9020_1.smor10.wcnf
c optimal
c final solution cost: 85
c CPU time: 0.215745
s OPTIMUM FOUND


rcpsp/heur_output_or_constraints/Log=10/heurj90.txt
encoding rcpsp/j90.sm/j9020_2.sm nv: 572142 nc: 1291291 enctime: 17.47
encoding rcpsp/j90.sm/j9020_2.sm nv: 87934 nc: 195251 enctime: 0.92
c File: j9020_2.smnaiveor10.wcnf
c optimal
c final solution cost: 76
c CPU time: 3.604113
s OPTIMUM FOUND

c File: j9020_2.smor10.wcnf
c optimal
c final solution cost: 76
c CPU time: 0.187069
s OPTIMUM FOUND


rcpsp/heur_output_or_constraints/Log=10/heurj90.txt
encoding rcpsp/j90.sm/j9020_3.sm nv: 693384 nc: 1545686 enctime: 19.90
encoding rcpsp/j90.sm/j9020_3.sm nv: 114896 nc: 252748 enctime: 1.22
c File: j9020_3.smnaiveor10.wcnf
c optimal
c final solution cost: 85
c CPU time: 3.957745
s OPTIMUM FOUND

c File: j9020_3.smor10.wcnf
c optimal
c final solution cost: 85
c CPU time: 0.243546
s OPTIMUM FOUND


rcpsp/heur_output_or_constraints/Log=10/heurj90.txt
encoding rcpsp/j90.sm/j9020_4.sm nv: 613500 nc: 1376313 enctime: 17.66
encoding rcpsp/j90.sm/j9020_4.sm nv: 96933 nc: 214353 enctime: 1.53
c File: j9020_4.smnaiveor10.wcnf
c optimal
c final solution cost: 78
c CPU time: 3.583326
s OPTIMUM FOUND

c File: j9020_4.smor10.wcnf
c optimal
c final solution cost: 78
c CPU time: 0.197032
s OPTIMUM FOUND


rcpsp/heur_output_or_constraints/Log=10/heurj90.txt
encoding rcpsp/j90.sm/j9020_5.sm nv: 606900 nc: 1343941 enctime: 16.66
encoding rcpsp/j90.sm/j9020_5.sm nv: 102000 nc: 222865 enctime: 1.10
c File: j9020_5.smnaiveor10.wcnf
c optimal
c final solution cost: 79
c CPU time: 3.297283
s OPTIMUM FOUND

c File: j9020_5.smor10.wcnf
c optimal
c final solution cost: 79
c CPU time: 0.210072
s OPTIMUM FOUND


rcpsp/heur_output_or_constraints/Log=10/heurj90.txt
encoding rcpsp/j90.sm/j9020_6.sm nv: 635290 nc: 1413599 enctime: 18.43
encoding rcpsp/j90.sm/j9020_6.sm nv: 95608 nc: 209396 enctime: 1.53
c File: j9020_6.smnaiveor10.wcnf
c optimal
c final solution cost: 75
c CPU time: 3.686353
s OPTIMUM FOUND

c File: j9020_6.smor10.wcnf
c optimal
c final solution cost: 75
c CPU time: 0.192834
s OPTIMUM FOUND


rcpsp/heur_output_or_constraints/Log=10/heurj90.txt
encoding rcpsp/j90.sm/j9020_7.sm nv: 672438 nc: 1462082 enctime: 17.60
encoding rcpsp/j90.sm/j9020_7.sm nv: 114636 nc: 246329 enctime: 1.69
c File: j9020_7.smnaiveor10.wcnf
c optimal
c final solution cost: 81
c CPU time: 3.446161
s OPTIMUM FOUND

c File: j9020_7.smor10.wcnf
c optimal
c final solution cost: 81
c CPU time: 0.224332
s OPTIMUM FOUND


rcpsp/heur_output_or_constraints/Log=10/heurj90.txt
encoding rcpsp/j90.sm/j9020_8.sm nv: 652540 nc: 1489255 enctime: 21.07
encoding rcpsp/j90.sm/j9020_8.sm nv: 101480 nc: 227888 enctime: 1.11
c File: j9020_8.smnaiveor10.wcnf
c optimal
c final solution cost: 85
c CPU time: 4.228988
s OPTIMUM FOUND

c File: j9020_8.smor10.wcnf
c optimal
c final solution cost: 85
c CPU time: 0.212301
s OPTIMUM FOUND


rcpsp/heur_output_or_constraints/Log=10/heurj90.txt
encoding rcpsp/j90.sm/j9020_9.sm nv: 524025 nc: 1134780 enctime: 13.56
encoding rcpsp/j90.sm/j9020_9.sm nv: 94941 nc: 203184 enctime: 1.41
c File: j9020_9.smnaiveor10.wcnf
c optimal
c final solution cost: 76
c CPU time: 2.695941
s OPTIMUM FOUND

c File: j9020_9.smor10.wcnf
c optimal
c final solution cost: 76
c CPU time: 0.197106
s OPTIMUM FOUND


